data;

set G := Solar Eolica Termica;

set C := Santiago Concepcion;

param X := 2;

param Gamma :=
Solar     5
Eolica    8
Termica  45 ;

param Theta:
            Santiago  Concepcion :=
Solar          1.5         3.2
Eolica         2.1         1.8
Termica        0.5         2.5 ;

param Phi:
            Santiago  Concepcion :=
Solar          300         200
Eolica         250         250
Termica        800         600 ;

param Delta:
              1   2   3   4   5   6   7   8   9  10 11 12 13 14 15 16 17 18 19 20 21 22 23 24 :=
Santiago    200 180 170 170 180 220 300 400 450 480 500 520 510 500 490 500 550 600 650 620 550 450 350 250
Concepcion  100  90  85  85  90 110 150 200 220 240 250 260 250 240 230 240 280 320 350 330 280 220 160 120 ;

param Omega2:
              1   2   3   4   5   6   7   8   9  10 11 12 13 14 15 16 17 18 19 20 21 22 23 24 :=
Solar        0   0   0   0   0   0  50 150 250 350 400 400 400 380 300 200 100  20   0   0   0   0   0   0
Eolica     150 180 200 250 250 200 150 120 100  80  80 100 120 150 180 220 250 280 300 280 250 200 180 150
Termica    500 500 500 500 500 500 500 500 500 500 500 500 500 500 500 500 500 500 500 500 500 500 500 500 ;

param Alpha :=
Solar      0
Eolica     0
Termica  150 ;

param Beta :=
Solar      10
Eolica     10
Termica   800 ;

param Epsilon :=
Santiago    1000
Concepcion   600 ;

param Zeta :=
Santiago      2
Concepcion    2 ;

end;